NAME : 20kro124p.11203.tour
COMMENT : Length = 11203
COMMENT : Found by GLKH [Keld Helsgaun] Tue Nov  5 16:51:46 2013
TYPE : TOUR
DIMENSION : 20
TOUR_SECTION
4
75
8
67
61
69
50
37
52
14
43
55
57
77
23
32
72
10
84
88
-1
EOF
